# Solution for model Food_Bank
# Objective value = 4989774.39557076
x_1_44 0
x_1_198 0
x_1_202 0
x_1_47 0
x_1_197 0
x_1_199 1
x_1_29 1
x_1_97 0
x_1_15 1
x_1_43 0
x_1_123 0
x_1_42 0
x_1_205 0
x_1_122 1
x_1_133 0
x_1_220 1
x_1_101 1
x_1_86 1
x_1_17 1
x_1_130 1
x_1_208 0
x_1_214 1
x_1_146 0
y_44_93 0
y_44_80 0
y_44_68 0
y_44_67 0
y_44_63 0
y_44_92 0
y_44_82 0
y_44_66 0
y_44_56 0
y_44_40 0
y_198_93 0
y_198_80 0
y_198_68 0
y_198_67 0
y_198_63 0
y_198_92 0
y_198_82 0
y_198_66 0
y_198_56 0
y_198_40 0
y_202_93 0
y_202_80 0
y_202_68 0
y_202_67 0
y_202_63 0
y_202_92 0
y_202_82 0
y_202_66 0
y_202_56 0
y_202_40 0
y_47_93 0
y_47_80 0
y_47_68 0
y_47_67 0
y_47_63 0
y_47_92 0
y_47_82 0
y_47_66 0
y_47_56 0
y_47_40 0
y_197_93 0
y_197_80 0
y_197_68 0
y_197_67 0
y_197_63 0
y_197_92 0
y_197_82 0
y_197_66 0
y_197_56 0
y_197_40 0
y_199_93 0
y_199_80 0
y_199_68 1
y_199_67 0
y_199_63 0
y_199_92 0
y_199_82 0
y_199_66 0
y_199_56 0
y_199_40 0
y_29_93 0
y_29_80 0
y_29_68 0
y_29_67 0
y_29_63 1
y_29_92 0
y_29_82 0
y_29_66 0
y_29_56 0
y_29_40 0
y_97_93 0
y_97_80 0
y_97_68 0
y_97_67 0
y_97_63 0
y_97_92 0
y_97_82 0
y_97_66 0
y_97_56 0
y_97_40 0
y_15_93 0
y_15_80 0
y_15_68 0
y_15_67 0
y_15_63 0
y_15_92 1
y_15_82 0
y_15_66 0
y_15_56 0
y_15_40 0
y_43_93 0
y_43_80 0
y_43_68 0
y_43_67 0
y_43_63 0
y_43_92 0
y_43_82 0
y_43_66 0
y_43_56 0
y_43_40 0
y_123_93 0
y_123_80 0
y_123_68 0
y_123_67 0
y_123_63 0
y_123_92 0
y_123_82 0
y_123_66 0
y_123_56 0
y_123_40 0
y_42_93 0
y_42_80 0
y_42_68 0
y_42_67 0
y_42_63 0
y_42_92 0
y_42_82 0
y_42_66 0
y_42_56 0
y_42_40 0
y_205_93 0
y_205_80 0
y_205_68 0
y_205_67 0
y_205_63 0
y_205_92 0
y_205_82 0
y_205_66 0
y_205_56 0
y_205_40 0
y_122_93 1
y_122_80 0
y_122_68 0
y_122_67 0
y_122_63 0
y_122_92 0
y_122_82 0
y_122_66 0
y_122_56 0
y_122_40 0
y_133_93 0
y_133_80 0
y_133_68 0
y_133_67 0
y_133_63 0
y_133_92 0
y_133_82 0
y_133_66 0
y_133_56 0
y_133_40 0
y_220_93 0
y_220_80 0
y_220_68 0
y_220_67 0
y_220_63 0
y_220_92 0
y_220_82 0
y_220_66 0
y_220_56 0
y_220_40 1
y_101_93 0
y_101_80 0
y_101_68 0
y_101_67 0
y_101_63 0
y_101_92 0
y_101_82 0
y_101_66 1
y_101_56 0
y_101_40 0
y_86_93 0
y_86_80 0
y_86_68 0
y_86_67 0
y_86_63 0
y_86_92 0
y_86_82 1
y_86_66 0
y_86_56 0
y_86_40 0
y_17_93 0
y_17_80 1
y_17_68 0
y_17_67 0
y_17_63 0
y_17_92 0
y_17_82 0
y_17_66 0
y_17_56 0
y_17_40 0
y_130_93 0
y_130_80 0
y_130_68 0
y_130_67 1
y_130_63 0
y_130_92 0
y_130_82 0
y_130_66 0
y_130_56 0
y_130_40 0
y_208_93 0
y_208_80 0
y_208_68 0
y_208_67 0
y_208_63 0
y_208_92 0
y_208_82 0
y_208_66 0
y_208_56 0
y_208_40 0
y_214_93 0
y_214_80 0
y_214_68 0
y_214_67 0
y_214_63 0
y_214_92 0
y_214_82 0
y_214_66 0
y_214_56 1
y_214_40 0
y_146_93 0
y_146_80 0
y_146_68 0
y_146_67 0
y_146_63 0
y_146_92 0
y_146_82 0
y_146_66 0
y_146_56 0
y_146_40 0
aFP_1_44 0
aFP_1_198 0
aFP_1_202 0
aFP_1_47 0
aFP_1_197 0
aFP_1_199 6.8165988315367067e+03
aFP_1_29 5.6214737292125237e+03
aFP_1_97 0
aFP_1_15 1.6583621417540328e+03
aFP_1_43 0
aFP_1_123 0
aFP_1_42 0
aFP_1_205 0
aFP_1_122 8.5304907340386380e+03
aFP_1_133 0
aFP_1_220 6.0955981729056730e+03
aFP_1_101 2.0000162815097453e+03
aFP_1_86 1.0854153671980710e+04
aFP_1_17 7.2482913179982252e+03
aFP_1_130 3.0573658920969342e+03
aFP_1_208 0
aFP_1_214 3.1557777552269558e+03
aFP_1_146 0
aPZ_44_93 0
aPZ_198_93 0
aPZ_202_93 0
aPZ_47_93 0
aPZ_197_93 0
aPZ_199_93 0
aPZ_29_93 0
aPZ_97_93 0
aPZ_15_93 0
aPZ_43_93 0
aPZ_123_93 0
aPZ_42_93 0
aPZ_205_93 0
aPZ_122_93 8.5304907340387836e+03
aPZ_133_93 0
aPZ_220_93 0
aPZ_101_93 0
aPZ_86_93 0
aPZ_17_93 0
aPZ_130_93 0
aPZ_208_93 0
aPZ_214_93 0
aPZ_146_93 0
aPZ_44_80 0
aPZ_198_80 0
aPZ_202_80 0
aPZ_47_80 0
aPZ_197_80 0
aPZ_199_80 0
aPZ_29_80 0
aPZ_97_80 0
aPZ_15_80 0
aPZ_43_80 0
aPZ_123_80 0
aPZ_42_80 0
aPZ_205_80 0
aPZ_122_80 0
aPZ_133_80 0
aPZ_220_80 0
aPZ_101_80 0
aPZ_86_80 0
aPZ_17_80 7.2482913179985562e+03
aPZ_130_80 0
aPZ_208_80 0
aPZ_214_80 0
aPZ_146_80 0
aPZ_44_68 0
aPZ_198_68 0
aPZ_202_68 0
aPZ_47_68 0
aPZ_197_68 0
aPZ_199_68 6.8165988315365221e+03
aPZ_29_68 0
aPZ_97_68 0
aPZ_15_68 0
aPZ_43_68 0
aPZ_123_68 0
aPZ_42_68 0
aPZ_205_68 0
aPZ_122_68 0
aPZ_133_68 0
aPZ_220_68 0
aPZ_101_68 0
aPZ_86_68 0
aPZ_17_68 0
aPZ_130_68 0
aPZ_208_68 0
aPZ_214_68 0
aPZ_146_68 0
aPZ_44_67 0
aPZ_198_67 0
aPZ_202_67 0
aPZ_47_67 0
aPZ_197_67 0
aPZ_199_67 0
aPZ_29_67 0
aPZ_97_67 0
aPZ_15_67 0
aPZ_43_67 0
aPZ_123_67 0
aPZ_42_67 0
aPZ_205_67 0
aPZ_122_67 0
aPZ_133_67 0
aPZ_220_67 0
aPZ_101_67 0
aPZ_86_67 0
aPZ_17_67 0
aPZ_130_67 3.0573658920969219e+03
aPZ_208_67 0
aPZ_214_67 0
aPZ_146_67 0
aPZ_44_63 0
aPZ_198_63 0
aPZ_202_63 0
aPZ_47_63 0
aPZ_197_63 0
aPZ_199_63 0
aPZ_29_63 5.6214737292125510e+03
aPZ_97_63 0
aPZ_15_63 0
aPZ_43_63 0
aPZ_123_63 0
aPZ_42_63 0
aPZ_205_63 0
aPZ_122_63 0
aPZ_133_63 0
aPZ_220_63 0
aPZ_101_63 0
aPZ_86_63 0
aPZ_17_63 0
aPZ_130_63 0
aPZ_208_63 0
aPZ_214_63 0
aPZ_146_63 0
aPZ_44_92 0
aPZ_198_92 0
aPZ_202_92 0
aPZ_47_92 0
aPZ_197_92 0
aPZ_199_92 0
aPZ_29_92 0
aPZ_97_92 0
aPZ_15_92 1.6583621417539666e+03
aPZ_43_92 0
aPZ_123_92 0
aPZ_42_92 0
aPZ_205_92 0
aPZ_122_92 0
aPZ_133_92 0
aPZ_220_92 0
aPZ_101_92 0
aPZ_86_92 0
aPZ_17_92 0
aPZ_130_92 0
aPZ_208_92 0
aPZ_214_92 0
aPZ_146_92 0
aPZ_44_82 0
aPZ_198_82 0
aPZ_202_82 0
aPZ_47_82 0
aPZ_197_82 0
aPZ_199_82 0
aPZ_29_82 0
aPZ_97_82 0
aPZ_15_82 0
aPZ_43_82 0
aPZ_123_82 0
aPZ_42_82 0
aPZ_205_82 0
aPZ_122_82 0
aPZ_133_82 0
aPZ_220_82 0
aPZ_101_82 0
aPZ_86_82 1.0854153671980708e+04
aPZ_17_82 0
aPZ_130_82 0
aPZ_208_82 0
aPZ_214_82 0
aPZ_146_82 0
aPZ_44_66 0
aPZ_198_66 0
aPZ_202_66 0
aPZ_47_66 0
aPZ_197_66 0
aPZ_199_66 0
aPZ_29_66 0
aPZ_97_66 0
aPZ_15_66 0
aPZ_43_66 0
aPZ_123_66 0
aPZ_42_66 0
aPZ_205_66 0
aPZ_122_66 0
aPZ_133_66 0
aPZ_220_66 0
aPZ_101_66 2.0000162815096139e+03
aPZ_86_66 0
aPZ_17_66 0
aPZ_130_66 0
aPZ_208_66 0
aPZ_214_66 0
aPZ_146_66 0
aPZ_44_56 0
aPZ_198_56 0
aPZ_202_56 0
aPZ_47_56 0
aPZ_197_56 0
aPZ_199_56 0
aPZ_29_56 0
aPZ_97_56 0
aPZ_15_56 0
aPZ_43_56 0
aPZ_123_56 0
aPZ_42_56 0
aPZ_205_56 0
aPZ_122_56 0
aPZ_133_56 0
aPZ_220_56 0
aPZ_101_56 0
aPZ_86_56 0
aPZ_17_56 0
aPZ_130_56 0
aPZ_208_56 0
aPZ_214_56 3.1557777552269436e+03
aPZ_146_56 0
aPZ_44_40 0
aPZ_198_40 0
aPZ_202_40 0
aPZ_47_40 0
aPZ_197_40 0
aPZ_199_40 0
aPZ_29_40 0
aPZ_97_40 0
aPZ_15_40 0
aPZ_43_40 0
aPZ_123_40 0
aPZ_42_40 0
aPZ_205_40 0
aPZ_122_40 0
aPZ_133_40 0
aPZ_220_40 6.0955981729059558e+03
aPZ_101_40 0
aPZ_86_40 0
aPZ_17_40 0
aPZ_130_40 0
aPZ_208_40 0
aPZ_214_40 0
aPZ_146_40 0
nT_1_44 0
nT_1_198 0
nT_1_202 0
nT_1_47 0
nT_1_197 0
nT_1_199 1
nT_1_29 1
nT_1_97 0
nT_1_15 1
nT_1_43 0
nT_1_123 0
nT_1_42 0
nT_1_205 0
nT_1_122 1
nT_1_133 0
nT_1_220 1
nT_1_101 1
nT_1_86 2
nT_1_17 1
nT_1_130 1
nT_1_208 0
nT_1_214 1
nT_1_146 0
ort_1_44 0
ort_1_198 0
ort_1_202 0
ort_1_47 0
ort_1_197 0
ort_1_199 9.6000000000035239e+00
ort_1_29 9.6
ort_1_97 0
ort_1_15 9.6
ort_1_43 0
ort_1_123 0
ort_1_42 0
ort_1_205 0
ort_1_122 9.5999999999731713e+00
ort_1_133 0
ort_1_220 9.5999999999759957e+00
ort_1_101 9.6
ort_1_86 9.5848018435051348e+00
ort_1_17 9.6
ort_1_130 9.6
ort_1_208 0
ort_1_214 9.6
ort_1_146 0
opt_1_44 0
opt_1_198 0
opt_1_202 0
opt_1_47 0
opt_1_197 0
opt_1_199 8.9458367250937645e+00
opt_1_29 8.9922596468708047e+00
opt_1_97 0
opt_1_15 9.1837485595770723e+00
opt_1_43 0
opt_1_123 0
opt_1_42 0
opt_1_205 0
opt_1_122 8.7601421299371349e+00
opt_1_133 0
opt_1_220 8.8752200913300729e+00
opt_1_101 9.0399991859226265e+00
opt_1_86 8.5754274932389531e+00
opt_1_17 8.7642521007648568e+00
opt_1_130 8.9737983720599050e+00
opt_1_208 0
opt_1_214 8.9622111122367727e+00
opt_1_146 0
dt_44_93 0
dt_44_80 0
dt_44_68 0
dt_44_67 0
dt_44_63 0
dt_44_92 0
dt_44_82 0
dt_44_66 0
dt_44_56 0
dt_44_40 0
dt_198_93 0
dt_198_80 0
dt_198_68 0
dt_198_67 0
dt_198_63 0
dt_198_92 0
dt_198_82 0
dt_198_66 0
dt_198_56 0
dt_198_40 0
dt_202_93 0
dt_202_80 0
dt_202_68 0
dt_202_67 0
dt_202_63 0
dt_202_92 0
dt_202_82 0
dt_202_66 0
dt_202_56 0
dt_202_40 0
dt_47_93 0
dt_47_80 0
dt_47_68 0
dt_47_67 0
dt_47_63 0
dt_47_92 0
dt_47_82 0
dt_47_66 0
dt_47_56 0
dt_47_40 0
dt_197_93 0
dt_197_80 0
dt_197_68 0
dt_197_67 0
dt_197_63 0
dt_197_92 0
dt_197_82 0
dt_197_66 0
dt_197_56 0
dt_197_40 0
dt_199_93 0
dt_199_80 0
dt_199_68 4.2898095910240652e+00
dt_199_67 0
dt_199_63 0
dt_199_92 0
dt_199_82 0
dt_199_66 0
dt_199_56 0
dt_199_40 0
dt_29_93 0
dt_29_80 0
dt_29_68 0
dt_29_67 0
dt_29_63 3.8955158052193104e+00
dt_29_92 0
dt_29_82 0
dt_29_66 0
dt_29_56 0
dt_29_40 0
dt_97_93 0
dt_97_80 0
dt_97_68 0
dt_97_67 0
dt_97_63 0
dt_97_92 0
dt_97_82 0
dt_97_66 0
dt_97_56 0
dt_97_40 0
dt_15_93 0
dt_15_80 0
dt_15_68 0
dt_15_67 0
dt_15_63 0
dt_15_92 2.6044267496066040e+00
dt_15_82 0
dt_15_66 0
dt_15_56 0
dt_15_40 0
dt_43_93 0
dt_43_80 0
dt_43_68 0
dt_43_67 0
dt_43_63 0
dt_43_92 0
dt_43_82 0
dt_43_66 0
dt_43_56 0
dt_43_40 0
dt_123_93 0
dt_123_80 0
dt_123_68 0
dt_123_67 0
dt_123_63 0
dt_123_92 0
dt_123_82 0
dt_123_66 0
dt_123_56 0
dt_123_40 0
dt_42_93 0
dt_42_80 0
dt_42_68 0
dt_42_67 0
dt_42_63 0
dt_42_92 0
dt_42_82 0
dt_42_66 0
dt_42_56 0
dt_42_40 0
dt_205_93 0
dt_205_80 0
dt_205_68 0
dt_205_67 0
dt_205_63 0
dt_205_92 0
dt_205_82 0
dt_205_66 0
dt_205_56 0
dt_205_40 0
dt_122_93 5.0016717569125744e+00
dt_122_80 0
dt_122_68 0
dt_122_67 0
dt_122_63 0
dt_122_92 0
dt_122_82 0
dt_122_66 0
dt_122_56 0
dt_122_40 0
dt_133_93 0
dt_133_80 0
dt_133_68 0
dt_133_67 0
dt_133_63 0
dt_133_92 0
dt_133_82 0
dt_133_66 0
dt_133_56 0
dt_133_40 0
dt_220_93 0
dt_220_80 0
dt_220_68 0
dt_220_67 0
dt_220_63 0
dt_220_92 0
dt_220_82 0
dt_220_66 0
dt_220_56 0
dt_220_40 3.7174593605154409e+00
dt_101_93 0
dt_101_80 0
dt_101_68 0
dt_101_67 0
dt_101_63 0
dt_101_92 0
dt_101_82 0
dt_101_66 2.4760056985212446e+00
dt_101_56 0
dt_101_40 0
dt_86_93 0
dt_86_80 0
dt_86_68 0
dt_86_67 0
dt_86_63 0
dt_86_92 0
dt_86_82 5.4949537851912442e+00
dt_86_66 0
dt_86_56 0
dt_86_40 0
dt_17_93 0
dt_17_80 4.3929019612949185e+00
dt_17_68 0
dt_17_67 0
dt_17_63 0
dt_17_92 0
dt_17_82 0
dt_17_66 0
dt_17_56 0
dt_17_40 0
dt_130_93 0
dt_130_80 0
dt_130_68 0
dt_130_67 2.9740780622269880e+00
dt_130_63 0
dt_130_92 0
dt_130_82 0
dt_130_66 0
dt_130_56 0
dt_130_40 0
dt_208_93 0
dt_208_80 0
dt_208_68 0
dt_208_67 0
dt_208_63 0
dt_208_92 0
dt_208_82 0
dt_208_66 0
dt_208_56 0
dt_208_40 0
dt_214_93 0
dt_214_80 0
dt_214_68 0
dt_214_67 0
dt_214_63 0
dt_214_92 0
dt_214_82 0
dt_214_66 0
dt_214_56 2.7045222143226293e+00
dt_214_40 0
dt_146_93 0
dt_146_80 0
dt_146_68 0
dt_146_67 0
dt_146_63 0
dt_146_92 0
dt_146_82 0
dt_146_66 0
dt_146_56 0
dt_146_40 0
ut_1_44 0
ut_1_198 0
ut_1_202 0
ut_1_47 0
ut_1_197 0
ut_1_199 2.3858095910349872e+00
ut_1_29 1.9675158052376964e+00
ut_1_97 0
ut_1_15 5.8042674962715357e-01
ut_1_43 0
ut_1_123 0
ut_1_42 0
ut_1_205 0
ut_1_122 2.9856717569189222e+00
ut_1_133 0
ut_1_220 2.1334593605214640e+00
ut_1_101 7.0000569854160311e-01
ut_1_86 3.7989537851966011e+00
ut_1_17 2.5369019613126671e+00
ut_1_130 1.0700780622473305e+00
ut_1_208 0
ut_1_214 1.1045222143425912e+00
ut_1_146 0
fFP_1_44 0
fFP_1_198 0
fFP_1_202 0
fFP_1_47 0
fFP_1_197 0
fFP_1_199 25
fFP_1_29 25
fFP_1_97 0
fFP_1_15 25
fFP_1_43 0
fFP_1_123 0
fFP_1_42 0
fFP_1_205 0
fFP_1_122 25
fFP_1_133 0
fFP_1_220 25
fFP_1_101 25
fFP_1_86 25
fFP_1_17 25
fFP_1_130 25
fFP_1_208 0
fFP_1_214 25
fFP_1_146 0
dt_93 5.0016717569132023e+00
dt_80 4.3929019612979490e+00
dt_68 4.2898095910253167e+00
dt_67 2.9740780622329446e+00
dt_63 3.8955158052230625e+00
dt_92 2.6044267496133133e+00
dt_82 5.49495378519145
dt_66 2.4760056985277195e+00
dt_56 2.7045222143284757e+00
dt_40 3.7174593605164805e+00
dtt_93 1.2504179392283109e+02
dtt_80 1.0982254903245008e+02
dtt_68 1.0724523977563436e+02
dtt_67 74.3519515558281
dtt_63 9.7387895130578357e+01
dtt_92 6.5110668740343939e+01
dtt_82 1.3737384462978687e+02
dtt_66 6.1900142463203288e+01
dtt_56 6.7613055358216755e+01
dtt_40 9.2936484012913738e+01
dt_last_93 7.0852479439054150e-10
dt_last_80 0
dt_last_68 1.0641656444931868e-09
dt_last_67 0
dt_last_63 0
dt_last_92 0
dt_last_82 3.7995391243561016e-01
dt_last_66 0
dt_last_56 0
dt_last_40 1.1582130809983937e-09
dep_cost 4.9386030435798410e+06
log_cost 5.1171351990918374e+04
